p cnf 7230 15
-3474 -4043 4044 0
-1670 -3480 -3490 -3540 4042 0
4043 -4045 0
1670 -4043 0
-3490 -3492 4041 0
3490 -4043 0
3480 -4043 0
3540 -4043 0
-4044 4045 0
3474 -4045 0
-4042 4043 0
4040 -4041 0
-4040 4041 0
3540 -4047 0
3490 -4047 0
